c ind 10 13 15 151 16 230 232 234 236 238 0
c ind 240 242 244 25 267 28 39 41 43 45 0
c ind 5 51 53 55 57 6 9 0
p cnf 314 1258
-1 -2 11 0
-1 2 150 0
-100 101 0
-100 106 0
-101 102 0
-101 105 0
-102 103 0
-102 104 0
-103 -16 39 0
-103 -39 16 0
-104 -16 41 0
-104 -41 16 0
-105 -16 43 0
-105 -43 16 0
-106 -16 45 0
-106 -45 16 0
-107 -108 14 0
-107 108 129 0
-108 -22 109 0
-108 22 125 0
-109 -30 16 0
-109 30 110 0
-11 -12 14 0
-11 12 17 0
-110 -32 111 0
-110 32 125 0
-111 -35 112 0
-111 35 113 0
-112 -47 13 0
-112 47 16 0
-113 -59 16 0
-113 59 114 0
-114 -64 16 0
-114 64 115 0
-115 -69 16 0
-115 69 116 0
-116 -73 16 0
-116 73 117 0
-117 -77 16 0
-117 77 118 0
-118 -80 16 0
-118 80 119 0
-119 -83 16 0
-119 83 120 0
-12 -13 9 0
-12 -9 13 0
-120 -86 16 0
-120 86 121 0
-121 -89 16 0
-121 89 122 0
-122 -91 16 0
-122 91 123 0
-123 -93 124 0
-123 93 16 0
-124 -95 16 0
-124 95 125 0
-125 106 0
-125 126 0
-126 105 0
-126 127 0
-127 104 0
-127 128 0
-128 -13 39 0
-128 -39 13 0
-129 -130 150 0
-129 130 152 0
-130 -22 131 0
-130 22 146 0
-131 -30 16 0
-131 30 132 0
-132 -32 133 0
-132 32 146 0
-133 -35 16 0
-133 35 134 0
-134 -59 112 0
-134 59 135 0
-135 -64 16 0
-135 64 136 0
-136 -69 16 0
-136 69 137 0
-137 -73 16 0
-137 73 138 0
-138 -77 16 0
-138 77 139 0
-139 -80 16 0
-139 80 140 0
-14 -15 16 0
-14 -16 15 0
-140 -83 16 0
-140 83 141 0
-141 -86 16 0
-141 86 142 0
-142 -89 16 0
-142 89 143 0
-143 -91 16 0
-143 91 144 0
-144 -93 145 0
-144 93 16 0
-145 -95 16 0
-145 95 146 0
-146 106 0
-146 147 0
-147 105 0
-147 148 0
-148 103 0
-148 149 0
-149 -13 41 0
-149 -41 13 0
-150 -15 151 0
-150 -151 15 0
-152 -153 150 0
-152 153 172 0
-153 -22 154 0
-153 22 169 0
-154 -30 16 0
-154 30 155 0
-155 -32 156 0
-155 32 169 0
-156 -35 16 0
-156 35 157 0
-157 -59 16 0
-157 59 158 0
-158 -64 112 0
-158 64 159 0
-159 -69 16 0
-159 69 160 0
-16 0
-160 -73 16 0
-160 73 161 0
-161 -77 16 0
-161 77 162 0
-162 -80 16 0
-162 80 163 0
-163 -83 16 0
-163 83 164 0
-164 -86 16 0
-164 86 165 0
-165 -89 16 0
-165 89 166 0
-166 -91 16 0
-166 91 167 0
-167 -93 168 0
-167 93 16 0
-168 -95 16 0
-168 95 169 0
-169 106 0
-169 170 0
-17 -18 20 0
-17 18 150 0
-170 105 0
-170 171 0
-171 128 0
-171 149 0
-172 -173 150 0
-172 173 192 0
-173 -22 174 0
-173 22 189 0
-174 -30 16 0
-174 30 175 0
-175 -32 176 0
-175 32 189 0
-176 -35 16 0
-176 35 177 0
-177 -59 16 0
-177 59 178 0
-178 -64 16 0
-178 64 179 0
-179 -69 112 0
-179 69 180 0
-18 19 0
-18 3 0
-180 -73 16 0
-180 73 181 0
-181 -77 16 0
-181 77 182 0
-182 -80 16 0
-182 80 183 0
-183 -83 16 0
-183 83 184 0
-184 -86 16 0
-184 86 185 0
-185 -89 16 0
-185 89 186 0
-186 -91 16 0
-186 91 187 0
-187 -93 188 0
-187 93 16 0
-188 -95 16 0
-188 95 189 0
-189 106 0
-189 190 0
-19 -13 5 0
-19 -5 13 0
-190 102 0
-190 191 0
-191 -13 43 0
-191 -43 13 0
-192 -193 150 0
-192 193 211 0
-193 -22 194 0
-193 22 209 0
-194 -30 16 0
-194 30 195 0
-195 -32 196 0
-195 32 209 0
-196 -35 16 0
-196 35 197 0
-197 -59 16 0
-197 59 198 0
-198 -64 16 0
-198 64 199 0
-199 -69 16 0
-199 69 200 0
-2 3 7 0
-20 -21 14 0
-20 21 107 0
-200 -73 112 0
-200 73 201 0
-201 -77 16 0
-201 77 202 0
-202 -80 16 0
-202 80 203 0
-203 -83 16 0
-203 83 204 0
-204 -86 16 0
-204 86 205 0
-205 -89 16 0
-205 89 206 0
-206 -91 16 0
-206 91 207 0
-207 -93 208 0
-207 93 16 0
-208 -95 16 0
-208 95 209 0
-209 106 0
-209 210 0
-21 -22 29 0
-21 22 100 0
-210 127 0
-210 191 0
-211 -212 150 0
-211 212 254 0
-212 -22 213 0
-212 22 252 0
-213 -30 16 0
-213 30 214 0
-214 -32 215 0
-214 32 252 0
-215 -35 16 0
-215 35 216 0
-216 -59 16 0
-216 59 217 0
-217 -64 16 0
-217 64 218 0
-218 -69 16 0
-218 69 219 0
-219 -73 16 0
-219 73 220 0
-22 23 26 0
-220 -77 221 0
-220 77 245 0
-221 -222 13 0
-221 222 16 0
-222 223 0
-222 243 0
-223 224 0
-223 241 0
-224 225 0
-224 239 0
-225 226 0
-225 237 0
-226 227 0
-226 235 0
-227 228 0
-227 233 0
-228 229 0
-228 231 0
-229 -16 230 0
-229 -230 16 0
-23 -24 0
-231 -16 232 0
-231 -232 16 0
-233 -16 234 0
-233 -234 16 0
-235 -16 236 0
-235 -236 16 0
-237 -16 238 0
-237 -238 16 0
-239 -16 240 0
-239 -240 16 0
-24 -25 6 0
-24 -6 25 0
-241 -16 242 0
-241 -242 16 0
-243 -16 244 0
-243 -244 16 0
-245 -80 16 0
-245 80 246 0
-246 -83 16 0
-246 83 247 0
-247 -86 16 0
-247 86 248 0
-248 -89 16 0
-248 89 249 0
-249 -91 16 0
-249 91 250 0
-250 -93 251 0
-250 93 16 0
-251 -95 16 0
-251 95 252 0
-252 106 0
-252 253 0
-253 148 0
-253 191 0
-254 -255 276 0
-254 255 277 0
-255 -22 256 0
-255 22 274 0
-256 -30 16 0
-256 30 257 0
-257 -32 258 0
-257 32 274 0
-258 -35 16 0
-258 35 259 0
-259 -59 16 0
-259 59 260 0
-26 -27 0
-260 -64 16 0
-260 64 261 0
-261 -69 16 0
-261 69 262 0
-262 -73 16 0
-262 73 263 0
-263 -77 16 0
-263 77 264 0
-264 -80 265 0
-264 80 268 0
-265 -266 13 0
-265 266 16 0
-266 -16 267 0
-266 -267 16 0
-268 -83 16 0
-268 83 269 0
-269 -86 16 0
-269 86 270 0
-27 -10 28 0
-27 -28 10 0
-270 -89 16 0
-270 89 271 0
-271 -91 16 0
-271 91 272 0
-272 -93 273 0
-272 93 16 0
-273 -95 16 0
-273 95 274 0
-274 101 0
-274 275 0
-275 -13 45 0
-275 -45 13 0
-276 -13 15 0
-276 -15 13 0
-277 -278 14 0
-277 278 297 0
-278 -22 279 0
-278 22 295 0
-279 -30 16 0
-279 30 280 0
-280 -32 281 0
-280 32 295 0
-281 -35 16 0
-281 35 282 0
-282 -59 16 0
-282 59 283 0
-283 -64 16 0
-283 64 284 0
-284 -69 16 0
-284 69 285 0
-285 -73 16 0
-285 73 286 0
-286 -77 16 0
-286 77 287 0
-287 -80 288 0
-287 80 289 0
-288 -266 16 0
-288 266 13 0
-289 -83 16 0
-289 83 290 0
-29 -30 13 0
-29 30 31 0
-290 -86 16 0
-290 86 291 0
-291 -89 16 0
-291 89 292 0
-292 -91 16 0
-292 91 293 0
-293 -93 294 0
-293 93 16 0
-294 -95 16 0
-294 95 295 0
-295 106 0
-295 296 0
-296 171 0
-296 191 0
-297 -298 14 0
-297 298 150 0
-298 -22 299 0
-298 22 314 0
-299 -30 16 0
-299 30 300 0
-3 -4 0
-30 -10 13 0
-30 -13 10 0
-300 -32 301 0
-300 32 314 0
-301 -35 16 0
-301 35 302 0
-302 -59 16 0
-302 59 303 0
-303 -64 16 0
-303 64 304 0
-304 -69 16 0
-304 69 305 0
-305 -73 16 0
-305 73 306 0
-306 -77 16 0
-306 77 307 0
-307 -80 16 0
-307 80 308 0
-308 -83 13 0
-308 83 309 0
-309 -86 16 0
-309 86 310 0
-31 -32 34 0
-31 32 100 0
-310 -89 16 0
-310 89 311 0
-311 -91 16 0
-311 91 312 0
-312 -93 313 0
-312 93 16 0
-313 -95 16 0
-313 95 314 0
-314 126 0
-314 275 0
-32 23 0
-32 33 0
-33 -13 6 0
-33 -6 13 0
-34 -35 46 0
-34 35 58 0
-35 36 0
-35 44 0
-36 37 0
-36 42 0
-37 38 0
-37 40 0
-38 -16 39 0
-38 -39 16 0
-4 -5 6 0
-4 -6 5 0
-40 -16 41 0
-40 -41 16 0
-42 -16 43 0
-42 -43 16 0
-44 -16 45 0
-44 -45 16 0
-46 -47 16 0
-46 47 13 0
-47 48 0
-47 56 0
-48 49 0
-48 54 0
-49 50 0
-49 52 0
-50 -16 51 0
-50 -51 16 0
-52 -16 53 0
-52 -53 16 0
-54 -16 55 0
-54 -55 16 0
-56 -16 57 0
-56 -57 16 0
-58 -59 46 0
-58 59 63 0
-59 44 0
-59 60 0
-60 42 0
-60 61 0
-61 40 0
-61 62 0
-62 -13 39 0
-62 -39 13 0
-63 -64 46 0
-63 64 68 0
-64 44 0
-64 65 0
-65 42 0
-65 66 0
-66 38 0
-66 67 0
-67 -13 41 0
-67 -41 13 0
-68 -69 46 0
-68 69 72 0
-69 44 0
-69 70 0
-7 -8 0
-70 42 0
-70 71 0
-71 62 0
-71 67 0
-72 -73 46 0
-72 73 76 0
-73 44 0
-73 74 0
-74 37 0
-74 75 0
-75 -13 43 0
-75 -43 13 0
-76 -77 16 0
-76 77 79 0
-77 44 0
-77 78 0
-78 61 0
-78 75 0
-79 -80 16 0
-79 80 82 0
-8 -10 9 0
-8 -9 10 0
-80 44 0
-80 81 0
-81 66 0
-81 75 0
-82 -83 16 0
-82 83 85 0
-83 36 0
-83 84 0
-84 -13 45 0
-84 -45 13 0
-85 -86 16 0
-85 86 88 0
-86 44 0
-86 87 0
-87 71 0
-87 75 0
-88 -89 16 0
-88 89 90 0
-89 60 0
-89 84 0
-90 -91 16 0
-90 91 92 0
-91 65 0
-91 84 0
-92 -93 94 0
-92 93 13 0
-93 70 0
-93 84 0
-94 -95 13 0
-94 95 100 0
-95 56 0
-95 96 0
-96 54 0
-96 97 0
-97 98 0
-97 99 0
-98 -13 51 0
-98 -51 13 0
-99 -13 53 0
-99 -53 13 0
1 -11 -150 0
1 -2 -11 0
1 0
1 2 -150 0
100 -101 -106 0
101 -102 -105 0
102 -103 -104 0
103 -16 -39 0
103 16 39 0
104 -16 -41 0
104 16 41 0
105 -16 -43 0
105 16 43 0
106 -16 -45 0
106 16 45 0
107 -108 -14 0
107 -14 -129 0
107 108 -129 0
108 -109 -125 0
108 -22 -109 0
108 22 -125 0
109 -16 -110 0
109 -30 -16 0
109 30 -110 0
11 -12 -14 0
11 -14 -17 0
11 12 -17 0
110 -111 -125 0
110 -32 -111 0
110 32 -125 0
111 -112 -113 0
111 -35 -112 0
111 35 -113 0
112 -13 -16 0
112 -47 -13 0
112 47 -16 0
113 -16 -114 0
113 -59 -16 0
113 59 -114 0
114 -16 -115 0
114 -64 -16 0
114 64 -115 0
115 -16 -116 0
115 -69 -16 0
115 69 -116 0
116 -16 -117 0
116 -73 -16 0
116 73 -117 0
117 -16 -118 0
117 -77 -16 0
117 77 -118 0
118 -16 -119 0
118 -80 -16 0
118 80 -119 0
119 -16 -120 0
119 -83 -16 0
119 83 -120 0
12 -9 -13 0
12 9 13 0
120 -16 -121 0
120 -86 -16 0
120 86 -121 0
121 -16 -122 0
121 -89 -16 0
121 89 -122 0
122 -16 -123 0
122 -91 -16 0
122 91 -123 0
123 -124 -16 0
123 -93 -124 0
123 93 -16 0
124 -16 -125 0
124 -95 -16 0
124 95 -125 0
125 -126 -106 0
126 -127 -105 0
127 -128 -104 0
128 -13 -39 0
128 13 39 0
129 -130 -150 0
129 -150 -152 0
129 130 -152 0
13 0
130 -131 -146 0
130 -22 -131 0
130 22 -146 0
131 -16 -132 0
131 -30 -16 0
131 30 -132 0
132 -133 -146 0
132 -32 -133 0
132 32 -146 0
133 -16 -134 0
133 -35 -16 0
133 35 -134 0
134 -112 -135 0
134 -59 -112 0
134 59 -135 0
135 -16 -136 0
135 -64 -16 0
135 64 -136 0
136 -16 -137 0
136 -69 -16 0
136 69 -137 0
137 -16 -138 0
137 -73 -16 0
137 73 -138 0
138 -16 -139 0
138 -77 -16 0
138 77 -139 0
139 -16 -140 0
139 -80 -16 0
139 80 -140 0
14 -15 -16 0
14 15 16 0
140 -16 -141 0
140 -83 -16 0
140 83 -141 0
141 -16 -142 0
141 -86 -16 0
141 86 -142 0
142 -16 -143 0
142 -89 -16 0
142 89 -143 0
143 -16 -144 0
143 -91 -16 0
143 91 -144 0
144 -145 -16 0
144 -93 -145 0
144 93 -16 0
145 -16 -146 0
145 -95 -16 0
145 95 -146 0
146 -147 -106 0
147 -148 -105 0
148 -103 -149 0
149 -13 -41 0
149 13 41 0
150 -15 -151 0
150 15 151 0
152 -150 -172 0
152 -153 -150 0
152 153 -172 0
153 -154 -169 0
153 -22 -154 0
153 22 -169 0
154 -16 -155 0
154 -30 -16 0
154 30 -155 0
155 -156 -169 0
155 -32 -156 0
155 32 -169 0
156 -16 -157 0
156 -35 -16 0
156 35 -157 0
157 -16 -158 0
157 -59 -16 0
157 59 -158 0
158 -112 -159 0
158 -64 -112 0
158 64 -159 0
159 -16 -160 0
159 -69 -16 0
159 69 -160 0
160 -16 -161 0
160 -73 -16 0
160 73 -161 0
161 -16 -162 0
161 -77 -16 0
161 77 -162 0
162 -16 -163 0
162 -80 -16 0
162 80 -163 0
163 -16 -164 0
163 -83 -16 0
163 83 -164 0
164 -16 -165 0
164 -86 -16 0
164 86 -165 0
165 -16 -166 0
165 -89 -16 0
165 89 -166 0
166 -16 -167 0
166 -91 -16 0
166 91 -167 0
167 -168 -16 0
167 -93 -168 0
167 93 -16 0
168 -16 -169 0
168 -95 -16 0
168 95 -169 0
169 -170 -106 0
17 -18 -20 0
17 -20 -150 0
17 18 -150 0
170 -171 -105 0
171 -128 -149 0
172 -150 -192 0
172 -173 -150 0
172 173 -192 0
173 -174 -189 0
173 -22 -174 0
173 22 -189 0
174 -16 -175 0
174 -30 -16 0
174 30 -175 0
175 -176 -189 0
175 -32 -176 0
175 32 -189 0
176 -16 -177 0
176 -35 -16 0
176 35 -177 0
177 -16 -178 0
177 -59 -16 0
177 59 -178 0
178 -16 -179 0
178 -64 -16 0
178 64 -179 0
179 -112 -180 0
179 -69 -112 0
179 69 -180 0
18 -3 -19 0
180 -16 -181 0
180 -73 -16 0
180 73 -181 0
181 -16 -182 0
181 -77 -16 0
181 77 -182 0
182 -16 -183 0
182 -80 -16 0
182 80 -183 0
183 -16 -184 0
183 -83 -16 0
183 83 -184 0
184 -16 -185 0
184 -86 -16 0
184 86 -185 0
185 -16 -186 0
185 -89 -16 0
185 89 -186 0
186 -16 -187 0
186 -91 -16 0
186 91 -187 0
187 -188 -16 0
187 -93 -188 0
187 93 -16 0
188 -16 -189 0
188 -95 -16 0
188 95 -189 0
189 -190 -106 0
19 -5 -13 0
19 5 13 0
190 -102 -191 0
191 -13 -43 0
191 13 43 0
192 -150 -211 0
192 -193 -150 0
192 193 -211 0
193 -194 -209 0
193 -22 -194 0
193 22 -209 0
194 -16 -195 0
194 -30 -16 0
194 30 -195 0
195 -196 -209 0
195 -32 -196 0
195 32 -209 0
196 -16 -197 0
196 -35 -16 0
196 35 -197 0
197 -16 -198 0
197 -59 -16 0
197 59 -198 0
198 -16 -199 0
198 -64 -16 0
198 64 -199 0
199 -16 -200 0
199 -69 -16 0
199 69 -200 0
2 -3 0
2 -7 0
20 -14 -107 0
20 -21 -14 0
20 21 -107 0
200 -112 -201 0
200 -73 -112 0
200 73 -201 0
201 -16 -202 0
201 -77 -16 0
201 77 -202 0
202 -16 -203 0
202 -80 -16 0
202 80 -203 0
203 -16 -204 0
203 -83 -16 0
203 83 -204 0
204 -16 -205 0
204 -86 -16 0
204 86 -205 0
205 -16 -206 0
205 -89 -16 0
205 89 -206 0
206 -16 -207 0
206 -91 -16 0
206 91 -207 0
207 -208 -16 0
207 -93 -208 0
207 93 -16 0
208 -16 -209 0
208 -95 -16 0
208 95 -209 0
209 -210 -106 0
21 -22 -29 0
21 -29 -100 0
21 22 -100 0
210 -127 -191 0
211 -150 -254 0
211 -212 -150 0
211 212 -254 0
212 -213 -252 0
212 -22 -213 0
212 22 -252 0
213 -16 -214 0
213 -30 -16 0
213 30 -214 0
214 -215 -252 0
214 -32 -215 0
214 32 -252 0
215 -16 -216 0
215 -35 -16 0
215 35 -216 0
216 -16 -217 0
216 -59 -16 0
216 59 -217 0
217 -16 -218 0
217 -64 -16 0
217 64 -218 0
218 -16 -219 0
218 -69 -16 0
218 69 -219 0
219 -16 -220 0
219 -73 -16 0
219 73 -220 0
22 -23 0
22 -26 0
220 -221 -245 0
220 -77 -221 0
220 77 -245 0
221 -13 -16 0
221 -222 -13 0
221 222 -16 0
222 -223 -243 0
223 -224 -241 0
224 -225 -239 0
225 -226 -237 0
226 -227 -235 0
227 -228 -233 0
228 -229 -231 0
229 -230 -16 0
229 230 16 0
23 24 0
231 -232 -16 0
231 232 16 0
233 -234 -16 0
233 234 16 0
235 -236 -16 0
235 236 16 0
237 -238 -16 0
237 238 16 0
239 -240 -16 0
239 240 16 0
24 -6 -25 0
24 6 25 0
241 -242 -16 0
241 242 16 0
243 -244 -16 0
243 244 16 0
245 -16 -246 0
245 -80 -16 0
245 80 -246 0
246 -16 -247 0
246 -83 -16 0
246 83 -247 0
247 -16 -248 0
247 -86 -16 0
247 86 -248 0
248 -16 -249 0
248 -89 -16 0
248 89 -249 0
249 -16 -250 0
249 -91 -16 0
249 91 -250 0
250 -251 -16 0
250 -93 -251 0
250 93 -16 0
251 -16 -252 0
251 -95 -16 0
251 95 -252 0
252 -253 -106 0
253 -148 -191 0
254 -255 -276 0
254 -276 -277 0
254 255 -277 0
255 -22 -256 0
255 -256 -274 0
255 22 -274 0
256 -16 -257 0
256 -30 -16 0
256 30 -257 0
257 -258 -274 0
257 -32 -258 0
257 32 -274 0
258 -16 -259 0
258 -35 -16 0
258 35 -259 0
259 -16 -260 0
259 -59 -16 0
259 59 -260 0
26 27 0
260 -16 -261 0
260 -64 -16 0
260 64 -261 0
261 -16 -262 0
261 -69 -16 0
261 69 -262 0
262 -16 -263 0
262 -73 -16 0
262 73 -263 0
263 -16 -264 0
263 -77 -16 0
263 77 -264 0
264 -265 -268 0
264 -80 -265 0
264 80 -268 0
265 -13 -16 0
265 -266 -13 0
265 266 -16 0
266 -267 -16 0
266 267 16 0
268 -16 -269 0
268 -83 -16 0
268 83 -269 0
269 -16 -270 0
269 -86 -16 0
269 86 -270 0
27 -10 -28 0
27 10 28 0
270 -16 -271 0
270 -89 -16 0
270 89 -271 0
271 -16 -272 0
271 -91 -16 0
271 91 -272 0
272 -273 -16 0
272 -93 -273 0
272 93 -16 0
273 -16 -274 0
273 -95 -16 0
273 95 -274 0
274 -101 -275 0
275 -13 -45 0
275 13 45 0
276 -15 -13 0
276 15 13 0
277 -14 -297 0
277 -278 -14 0
277 278 -297 0
278 -22 -279 0
278 -279 -295 0
278 22 -295 0
279 -16 -280 0
279 -30 -16 0
279 30 -280 0
280 -281 -295 0
280 -32 -281 0
280 32 -295 0
281 -16 -282 0
281 -35 -16 0
281 35 -282 0
282 -16 -283 0
282 -59 -16 0
282 59 -283 0
283 -16 -284 0
283 -64 -16 0
283 64 -284 0
284 -16 -285 0
284 -69 -16 0
284 69 -285 0
285 -16 -286 0
285 -73 -16 0
285 73 -286 0
286 -16 -287 0
286 -77 -16 0
286 77 -287 0
287 -288 -289 0
287 -80 -288 0
287 80 -289 0
288 -16 -13 0
288 -266 -16 0
288 266 -13 0
289 -16 -290 0
289 -83 -16 0
289 83 -290 0
29 -13 -31 0
29 -30 -13 0
29 30 -31 0
290 -16 -291 0
290 -86 -16 0
290 86 -291 0
291 -16 -292 0
291 -89 -16 0
291 89 -292 0
292 -16 -293 0
292 -91 -16 0
292 91 -293 0
293 -294 -16 0
293 -93 -294 0
293 93 -16 0
294 -16 -295 0
294 -95 -16 0
294 95 -295 0
295 -296 -106 0
296 -171 -191 0
297 -14 -150 0
297 -298 -14 0
297 298 -150 0
298 -22 -299 0
298 -299 -314 0
298 22 -314 0
299 -16 -300 0
299 -30 -16 0
299 30 -300 0
3 4 0
30 -10 -13 0
30 10 13 0
300 -301 -314 0
300 -32 -301 0
300 32 -314 0
301 -16 -302 0
301 -35 -16 0
301 35 -302 0
302 -16 -303 0
302 -59 -16 0
302 59 -303 0
303 -16 -304 0
303 -64 -16 0
303 64 -304 0
304 -16 -305 0
304 -69 -16 0
304 69 -305 0
305 -16 -306 0
305 -73 -16 0
305 73 -306 0
306 -16 -307 0
306 -77 -16 0
306 77 -307 0
307 -16 -308 0
307 -80 -16 0
307 80 -308 0
308 -13 -309 0
308 -83 -13 0
308 83 -309 0
309 -16 -310 0
309 -86 -16 0
309 86 -310 0
31 -32 -34 0
31 -34 -100 0
31 32 -100 0
310 -16 -311 0
310 -89 -16 0
310 89 -311 0
311 -16 -312 0
311 -91 -16 0
311 91 -312 0
312 -313 -16 0
312 -93 -313 0
312 93 -16 0
313 -16 -314 0
313 -95 -16 0
313 95 -314 0
314 -126 -275 0
32 -23 -33 0
33 -6 -13 0
33 6 13 0
34 -35 -46 0
34 -46 -58 0
34 35 -58 0
35 -36 -44 0
36 -37 -42 0
37 -38 -40 0
38 -39 -16 0
38 39 16 0
4 -5 -6 0
4 5 6 0
40 -41 -16 0
40 41 16 0
42 -43 -16 0
42 43 16 0
44 -45 -16 0
44 45 16 0
46 -16 -13 0
46 -47 -16 0
46 47 -13 0
47 -48 -56 0
48 -49 -54 0
49 -50 -52 0
50 -51 -16 0
50 51 16 0
52 -53 -16 0
52 53 16 0
54 -55 -16 0
54 55 16 0
56 -57 -16 0
56 57 16 0
58 -46 -63 0
58 -59 -46 0
58 59 -63 0
59 -60 -44 0
60 -61 -42 0
61 -62 -40 0
62 -39 -13 0
62 39 13 0
63 -46 -68 0
63 -64 -46 0
63 64 -68 0
64 -65 -44 0
65 -66 -42 0
66 -38 -67 0
67 -41 -13 0
67 41 13 0
68 -46 -72 0
68 -69 -46 0
68 69 -72 0
69 -70 -44 0
7 8 0
70 -71 -42 0
71 -62 -67 0
72 -46 -76 0
72 -73 -46 0
72 73 -76 0
73 -74 -44 0
74 -37 -75 0
75 -43 -13 0
75 43 13 0
76 -16 -79 0
76 -77 -16 0
76 77 -79 0
77 -78 -44 0
78 -61 -75 0
79 -16 -82 0
79 -80 -16 0
79 80 -82 0
8 -9 -10 0
8 9 10 0
80 -81 -44 0
81 -66 -75 0
82 -16 -85 0
82 -83 -16 0
82 83 -85 0
83 -36 -84 0
84 -45 -13 0
84 45 13 0
85 -16 -88 0
85 -86 -16 0
85 86 -88 0
86 -87 -44 0
87 -71 -75 0
88 -16 -90 0
88 -89 -16 0
88 89 -90 0
89 -60 -84 0
90 -16 -92 0
90 -91 -16 0
90 91 -92 0
91 -65 -84 0
92 -93 -94 0
92 -94 -13 0
92 93 -13 0
93 -70 -84 0
94 -13 -100 0
94 -95 -13 0
94 95 -100 0
95 -96 -56 0
96 -97 -54 0
97 -98 -99 0
98 -51 -13 0
98 51 13 0
99 -53 -13 0
99 53 13 0
